800
47880.0 152668.0
46510.0 153090.9
45793.0 153306.9
22967.0 158343.0
21356.0 158568.3
15468.0 159250.6
2284.0 159983.7
1579.0 159992.2
1088.0 159996.3
967.0 159997.1
953.0 159997.2
941.0 159997.2
938.0 159997.3
933.0 159997.3
932.0 159997.3
931.0 159997.3
919.0 159997.4
914.0 159997.4
913.0 159997.4
911.0 159997.4
903.0 159997.5
891.0 159997.5
889.0 159997.5
886.0 159997.5
885.0 159997.6
875.0 159997.6
872.0 159997.6
864.0 159997.7
857.0 159997.7
851.0 159997.7
850.0 159997.7
841.0 159997.8
836.0 159997.8
832.0 159997.8
826.0 159997.9
825.0 159997.9
823.0 159997.9
820.0 159997.9
813.0 159997.9
803.0 159998.0
797.0 159998.0
796.0 159998.0
786.0 159998.1
785.0 159998.1
776.0 159998.1
772.0 159998.1
770.0 159998.1
762.0 159998.2
761.0 159998.2
758.0 159998.2
757.0 159998.2
741.0 159998.3
738.0 159998.3
730.0 159998.3
728.0 159998.3
726.0 159998.4
724.0 159998.4
723.0 159998.4
712.0 159998.4
709.0 159998.4
705.0 159998.4
693.0 159998.5
686.0 159998.5
683.0 159998.5
679.0 159998.6
677.0 159998.6
672.0 159998.6
666.0 159998.6
658.0 159998.6
653.0 159998.7
648.0 159998.7
641.0 159998.7
637.0 159998.7
633.0 159998.7
626.0 159998.8
621.0 159998.8
619.0 159998.8
613.0 159998.8
610.0 159998.8
607.0 159998.8
597.0 159998.9
596.0 159998.9
593.0 159998.9
586.0 159998.9
576.0 159999.0
573.0 159999.0
571.0 159999.0
569.0 159999.0
558.0 159999.0
556.0 159999.0
549.0 159999.1
544.0 159999.1
535.0 159999.1
534.0 159999.1
525.0 159999.1
521.0 159999.2
515.0 159999.2
513.0 159999.2
505.0 159999.2
501.0 159999.2
496.0 159999.2
490.0 159999.2
487.0 159999.3
486.0 159999.3
477.0 159999.3
472.0 159999.3
466.0 159999.3
465.0 159999.3
463.0 159999.3
455.0 159999.4
452.0 159999.4
450.0 159999.4
443.0 159999.4
436.0 159999.4
432.0 159999.4
429.0 159999.4
417.0 159999.5
416.0 159999.5
411.0 159999.5
406.0 159999.5
395.0 159999.5
394.0 159999.5
392.0 159999.5
391.0 159999.5
387.0 159999.5
376.0 159999.6
374.0 159999.6
372.0 159999.6
370.0 159999.6
360.0 159999.6
355.0 159999.6
347.0 159999.6
340.0 159999.6
333.0 159999.7
331.0 159999.7
330.0 159999.7
317.0 159999.7
314.0 159999.7
307.0 159999.7
304.0 159999.7
299.0 159999.7
291.0 159999.7
285.0 159999.7
284.0 159999.7
281.0 159999.8
274.0 159999.8
269.0 159999.8
264.0 159999.8
255.0 159999.8
251.0 159999.8
245.0 159999.8
243.0 159999.8
237.0 159999.8
235.0 159999.8
234.0 159999.8
220.0 159999.8
219.0 159999.9
214.0 159999.9
209.0 159999.9
207.0 159999.9
202.0 159999.9
192.0 159999.9
186.0 159999.9
183.0 159999.9
182.0 159999.9
173.0 159999.9
166.0 159999.9
160.0 159999.9
157.0 159999.9
155.0 159999.9
154.0 159999.9
142.0 159999.9
139.0 159999.9
136.0 159999.9
135.0 159999.9
128.0 159999.9
117.0 160000.0
113.0 160000.0
107.0 160000.0
105.0 160000.0
99.0 160000.0
98.0 160000.0
97.0 160000.0
94.0 160000.0
89.0 160000.0
85.0 160000.0
66.0 160000.0
63.0 160000.0
60.0 160000.0
51.0 160000.0
46.0 160000.0
45.0 160000.0
42.0 160000.0
33.0 160000.0
25.0 160000.0
21.0 160000.0
19.0 160000.0
12.0 160000.0
8.0 160000.0
4.0 160000.0
-7.0 160000.0
-9.0 160000.0
-11.0 160000.0
-20.0 160000.0
-24.0 160000.0
-30.0 160000.0
-36.0 160000.0
-37.0 160000.0
-41.0 160000.0
-53.0 160000.0
-54.0 160000.0
-56.0 160000.0
-69.0 160000.0
-71.0 160000.0
-81.0 160000.0
-84.0 160000.0
-88.0 160000.0
-89.0 160000.0
-97.0 160000.0
-100.0 160000.0
-106.0 160000.0
-108.0 160000.0
-118.0 160000.0
-119.0 160000.0
-126.0 160000.0
-129.0 159999.9
-130.0 159999.9
-136.0 159999.9
-140.0 159999.9
-148.0 159999.9
-150.0 159999.9
-161.0 159999.9
-162.0 159999.9
-170.0 159999.9
-175.0 159999.9
-176.0 159999.9
-183.0 159999.9
-185.0 159999.9
-197.0 159999.9
-198.0 159999.9
-202.0 159999.9
-207.0 159999.9
-210.0 159999.9
-219.0 159999.9
-222.0 159999.8
-228.0 159999.8
-232.0 159999.8
-237.0 159999.8
-244.0 159999.8
-256.0 159999.8
-262.0 159999.8
-264.0 159999.8
-265.0 159999.8
-267.0 159999.8
-274.0 159999.8
-280.0 159999.8
-282.0 159999.8
-290.0 159999.7
-295.0 159999.7
-297.0 159999.7
-300.0 159999.7
-313.0 159999.7
-319.0 159999.7
-320.0 159999.7
-329.0 159999.7
-333.0 159999.7
-334.0 159999.7
-339.0 159999.6
-347.0 159999.6
-348.0 159999.6
-355.0 159999.6
-357.0 159999.6
-365.0 159999.6
-369.0 159999.6
-371.0 159999.6
-378.0 159999.6
-383.0 159999.5
-389.0 159999.5
-391.0 159999.5
-401.0 159999.5
-402.0 159999.5
-409.0 159999.5
-412.0 159999.5
-420.0 159999.4
-429.0 159999.4
-430.0 159999.4
-431.0 159999.4
-437.0 159999.4
-441.0 159999.4
-450.0 159999.4
-455.0 159999.4
-463.0 159999.3
-468.0 159999.3
-472.0 159999.3
-473.0 159999.3
-486.0 159999.3
-488.0 159999.3
-489.0 159999.3
-491.0 159999.2
-495.0 159999.2
-500.0 159999.2
-507.0 159999.2
-511.0 159999.2
-522.0 159999.1
-524.0 159999.1
-528.0 159999.1
-531.0 159999.1
-546.0 159999.1
-547.0 159999.1
-552.0 159999.0
-553.0 159999.0
-560.0 159999.0
-565.0 159999.0
-571.0 159999.0
-575.0 159999.0
-576.0 159999.0
-580.0 159998.9
-590.0 159998.9
-591.0 159998.9
-600.0 159998.9
-604.0 159998.9
-606.0 159998.9
-614.0 159998.8
-618.0 159998.8
-622.0 159998.8
-628.0 159998.8
-630.0 159998.8
-639.0 159998.7
-642.0 159998.7
-650.0 159998.7
-651.0 159998.7
-657.0 159998.7
-662.0 159998.6
-669.0 159998.6
-678.0 159998.6
-684.0 159998.5
-688.0 159998.5
-692.0 159998.5
-695.0 159998.5
-699.0 159998.5
-702.0 159998.5
-716.0 159998.4
-721.0 159998.4
-724.0 159998.4
-732.0 159998.3
-735.0 159998.3
-738.0 159998.3
-740.0 159998.3
-746.0 159998.3
-755.0 159998.2
-756.0 159998.2
-758.0 159998.2
-764.0 159998.2
-771.0 159998.1
-773.0 159998.1
-780.0 159998.1
-784.0 159998.1
-785.0 159998.1
-792.0 159998.0
-796.0 159998.0
-804.0 159998.0
-805.0 159998.0
-811.0 159997.9
-821.0 159997.9
-824.0 159997.9
-826.0 159997.9
-830.0 159997.8
-837.0 159997.8
-842.0 159997.8
-850.0 159997.7
-851.0 159997.7
-856.0 159997.7
-871.0 159997.6
-872.0 159997.6
-878.0 159997.6
-885.0 159997.6
-890.0 159997.5
-899.0 159997.5
-901.0 159997.5
-903.0 159997.5
-904.0 159997.4
-908.0 159997.4
-910.0 159997.4
-915.0 159997.4
-924.0 159997.3
-936.0 159997.3
-940.0 159997.2
-944.0 159997.2
-952.0 159997.2
-965.0 159997.1
-974.0 159997.0
-1027.0 159996.7
-1044.0 159996.6
-1799.0 159989.9
-3922.0 159951.9
-4088.0 159947.8
-4862.0 159926.1
-9669.0 159707.6
-68628.0 144534.4
-131063.0 91774.1
-62323.0 -147363.0
-49780.0 -152059.0
-9726.0 -159704.1
-9663.0 -159707.9
-7963.0 -159801.7
-2170.0 -159985.3
-1240.0 -159995.2
-1099.0 -159996.2
-1012.0 -159996.8
-972.0 -159997.0
-948.0 -159997.2
-940.0 -159997.2
-938.0 -159997.3
-934.0 -159997.3
-930.0 -159997.3
-928.0 -159997.3
-915.0 -159997.4
-911.0 -159997.4
-909.0 -159997.4
-907.0 -159997.4
-902.0 -159997.5
-896.0 -159997.5
-892.0 -159997.5
-891.0 -159997.5
-881.0 -159997.6
-871.0 -159997.6
-870.0 -159997.6
-860.0 -159997.7
-859.0 -159997.7
-857.0 -159997.7
-853.0 -159997.7
-847.0 -159997.8
-846.0 -159997.8
-842.0 -159997.8
-830.0 -159997.8
-825.0 -159997.9
-822.0 -159997.9
-820.0 -159997.9
-812.0 -159997.9
-811.0 -159997.9
-803.0 -159998.0
-791.0 -159998.0
-787.0 -159998.1
-784.0 -159998.1
-783.0 -159998.1
-779.0 -159998.1
-768.0 -159998.2
-763.0 -159998.2
-762.0 -159998.2
-750.0 -159998.2
-749.0 -159998.2
-741.0 -159998.3
-738.0 -159998.3
-737.0 -159998.3
-729.0 -159998.3
-723.0 -159998.4
-717.0 -159998.4
-713.0 -159998.4
-707.0 -159998.4
-701.0 -159998.5
-699.0 -159998.5
-696.0 -159998.5
-686.0 -159998.5
-685.0 -159998.5
-679.0 -159998.6
-678.0 -159998.6
-672.0 -159998.6
-660.0 -159998.6
-656.0 -159998.7
-655.0 -159998.7
-646.0 -159998.7
-644.0 -159998.7
-638.0 -159998.7
-637.0 -159998.7
-634.0 -159998.7
-621.0 -159998.8
-615.0 -159998.8
-614.0 -159998.8
-610.0 -159998.8
-602.0 -159998.9
-596.0 -159998.9
-592.0 -159998.9
-590.0 -159998.9
-586.0 -159998.9
-576.0 -159999.0
-570.0 -159999.0
-565.0 -159999.0
-563.0 -159999.0
-557.0 -159999.0
-552.0 -159999.0
-549.0 -159999.1
-548.0 -159999.1
-542.0 -159999.1
-536.0 -159999.1
-525.0 -159999.1
-520.0 -159999.2
-515.0 -159999.2
-512.0 -159999.2
-508.0 -159999.2
-502.0 -159999.2
-501.0 -159999.2
-490.0 -159999.2
-488.0 -159999.3
-487.0 -159999.3
-486.0 -159999.3
-483.0 -159999.3
-476.0 -159999.3
-465.0 -159999.3
-459.0 -159999.3
-451.0 -159999.4
-449.0 -159999.4
-444.0 -159999.4
-442.0 -159999.4
-435.0 -159999.4
-426.0 -159999.4
-420.0 -159999.4
-415.0 -159999.5
-412.0 -159999.5
-408.0 -159999.5
-401.0 -159999.5
-397.0 -159999.5
-395.0 -159999.5
-388.0 -159999.5
-383.0 -159999.5
-380.0 -159999.5
-375.0 -159999.6
-369.0 -159999.6
-368.0 -159999.6
-366.0 -159999.6
-364.0 -159999.6
-348.0 -159999.6
-341.0 -159999.6
-339.0 -159999.6
-332.0 -159999.7
-327.0 -159999.7
-324.0 -159999.7
-323.0 -159999.7
-311.0 -159999.7
-310.0 -159999.7
-300.0 -159999.7
-295.0 -159999.7
-290.0 -159999.7
-285.0 -159999.7
-284.0 -159999.7
-277.0 -159999.8
-270.0 -159999.8
-265.0 -159999.8
-262.0 -159999.8
-259.0 -159999.8
-252.0 -159999.8
-246.0 -159999.8
-243.0 -159999.8
-240.0 -159999.8
-230.0 -159999.8
-225.0 -159999.8
-220.0 -159999.8
-219.0 -159999.9
-212.0 -159999.9
-211.0 -159999.9
-208.0 -159999.9
-197.0 -159999.9
-195.0 -159999.9
-194.0 -159999.9
-187.0 -159999.9
-181.0 -159999.9
-177.0 -159999.9
-174.0 -159999.9
-161.0 -159999.9
-160.0 -159999.9
-150.0 -159999.9
-147.0 -159999.9
-141.0 -159999.9
-138.0 -159999.9
-131.0 -159999.9
-128.0 -159999.9
-124.0 -160000.0
-122.0 -160000.0
-110.0 -160000.0
-105.0 -160000.0
-103.0 -160000.0
-97.0 -160000.0
-90.0 -160000.0
-86.0 -160000.0
-80.0 -160000.0
-75.0 -160000.0
-70.0 -160000.0
-69.0 -160000.0
-60.0 -160000.0
-57.0 -160000.0
-52.0 -160000.0
-46.0 -160000.0
-43.0 -160000.0
-39.0 -160000.0
-33.0 -160000.0
-29.0 -160000.0
-20.0 -160000.0
-19.0 -160000.0
-16.0 -160000.0
-6.0 -160000.0
-3.0 -160000.0
6.0 -160000.0
9.0 -160000.0
11.0 -160000.0
16.0 -160000.0
25.0 -160000.0
26.0 -160000.0
36.0 -160000.0
40.0 -160000.0
43.0 -160000.0
46.0 -160000.0
55.0 -160000.0
56.0 -160000.0
62.0 -160000.0
74.0 -160000.0
77.0 -160000.0
79.0 -160000.0
84.0 -160000.0
85.0 -160000.0
90.0 -160000.0
96.0 -160000.0
115.0 -160000.0
121.0 -160000.0
123.0 -160000.0
128.0 -159999.9
134.0 -159999.9
135.0 -159999.9
139.0 -159999.9
141.0 -159999.9
142.0 -159999.9
146.0 -159999.9
152.0 -159999.9
160.0 -159999.9
164.0 -159999.9
169.0 -159999.9
176.0 -159999.9
178.0 -159999.9
184.0 -159999.9
189.0 -159999.9
191.0 -159999.9
197.0 -159999.9
202.0 -159999.9
213.0 -159999.9
217.0 -159999.9
221.0 -159999.8
225.0 -159999.8
227.0 -159999.8
230.0 -159999.8
241.0 -159999.8
244.0 -159999.8
249.0 -159999.8
250.0 -159999.8
256.0 -159999.8
261.0 -159999.8
270.0 -159999.8
274.0 -159999.8
280.0 -159999.8
281.0 -159999.8
285.0 -159999.7
292.0 -159999.7
299.0 -159999.7
306.0 -159999.7
307.0 -159999.7
310.0 -159999.7
316.0 -159999.7
322.0 -159999.7
328.0 -159999.7
335.0 -159999.6
337.0 -159999.6
343.0 -159999.6
352.0 -159999.6
364.0 -159999.6
366.0 -159999.6
368.0 -159999.6
369.0 -159999.6
372.0 -159999.6
379.0 -159999.6
382.0 -159999.5
385.0 -159999.5
392.0 -159999.5
408.0 -159999.5
409.0 -159999.5
411.0 -159999.5
414.0 -159999.5
417.0 -159999.5
424.0 -159999.4
426.0 -159999.4
436.0 -159999.4
439.0 -159999.4
443.0 -159999.4
453.0 -159999.4
456.0 -159999.4
460.0 -159999.3
467.0 -159999.3
474.0 -159999.3
477.0 -159999.3
479.0 -159999.3
480.0 -159999.3
486.0 -159999.3
490.0 -159999.2
499.0 -159999.2
508.0 -159999.2
510.0 -159999.2
514.0 -159999.2
515.0 -159999.2
521.0 -159999.2
532.0 -159999.1
536.0 -159999.1
539.0 -159999.1
540.0 -159999.1
547.0 -159999.1
555.0 -159999.0
558.0 -159999.0
562.0 -159999.0
571.0 -159999.0
574.0 -159999.0
579.0 -159999.0
581.0 -159998.9
591.0 -159998.9
595.0 -159998.9
598.0 -159998.9
602.0 -159998.9
606.0 -159998.9
612.0 -159998.8
622.0 -159998.8
626.0 -159998.8
627.0 -159998.8
632.0 -159998.8
648.0 -159998.7
650.0 -159998.7
652.0 -159998.7
654.0 -159998.7
657.0 -159998.7
663.0 -159998.6
667.0 -159998.6
675.0 -159998.6
677.0 -159998.6
687.0 -159998.5
689.0 -159998.5
690.0 -159998.5
702.0 -159998.5
703.0 -159998.5
707.0 -159998.4
713.0 -159998.4
718.0 -159998.4
729.0 -159998.3
739.0 -159998.3
741.0 -159998.3
746.0 -159998.3
747.0 -159998.3
749.0 -159998.2
756.0 -159998.2
757.0 -159998.2
763.0 -159998.2
765.0 -159998.2
775.0 -159998.1
779.0 -159998.1
780.0 -159998.1
786.0 -159998.1
792.0 -159998.0
795.0 -159998.0
802.0 -159998.0
809.0 -159998.0
816.0 -159997.9
817.0 -159997.9
821.0 -159997.9
826.0 -159997.9
830.0 -159997.8
839.0 -159997.8
841.0 -159997.8
848.0 -159997.8
856.0 -159997.7
860.0 -159997.7
863.0 -159997.7
868.0 -159997.6
878.0 -159997.6
881.0 -159997.6
882.0 -159997.6
889.0 -159997.5
892.0 -159997.5
899.0 -159997.5
907.0 -159997.4
908.0 -159997.4
911.0 -159997.4
919.0 -159997.4
920.0 -159997.4
929.0 -159997.3
934.0 -159997.3
941.0 -159997.2
944.0 -159997.2
948.0 -159997.2
956.0 -159997.1
973.0 -159997.0
1335.0 -159994.4
1659.0 -159991.4
1921.0 -159988.5
2026.0 -159987.2
2062.0 -159986.7
2109.0 -159986.1
16814.0 -159114.1
53591.0 -150758.1
